jobs  (incl. supersource/sink ):	102
RESOURCES
- renewable                 : 2 R
- nonrenewable              : 4 N
- doubly constrained        : 0 D
************************************************************************
PRECEDENCE RELATIONS:
jobnr.    #modes  #successors   successors
1	1	6		2 4 5 6 7 8 
2	6	3		15 11 3 
3	6	6		22 21 20 17 14 9 
4	6	9		26 25 22 21 20 17 16 13 12 
5	6	6		26 22 19 18 14 10 
6	6	10		29 28 26 25 24 23 22 21 19 18 
7	6	4		27 25 22 12 
8	6	6		27 25 22 21 18 17 
9	6	4		27 26 19 12 
10	6	6		38 29 28 24 23 20 
11	6	5		28 24 21 20 18 
12	6	5		29 28 24 23 18 
13	6	5		38 34 28 23 19 
14	6	5		38 36 33 25 24 
15	6	8		40 38 36 34 32 31 30 28 
16	6	5		38 36 34 31 24 
17	6	3		36 28 24 
18	6	5		40 38 36 31 30 
19	6	5		40 36 33 31 30 
20	6	5		40 34 32 31 30 
21	6	7		40 37 36 35 33 32 30 
22	6	5		43 40 33 32 31 
23	6	6		47 40 37 36 35 32 
24	6	5		47 40 35 32 30 
25	6	5		45 43 39 34 31 
26	6	5		40 38 37 35 30 
27	6	7		50 48 42 40 39 38 35 
28	6	6		45 42 39 37 35 33 
29	6	6		45 43 42 41 39 33 
30	6	9		50 49 48 46 45 43 42 41 39 
31	6	5		48 47 42 37 35 
32	6	9		55 51 50 49 48 46 45 42 39 
33	6	9		58 55 54 52 50 49 48 46 44 
34	6	7		58 54 51 50 49 46 42 
35	6	9		60 58 57 56 54 52 51 49 46 
36	6	7		60 58 56 55 51 49 43 
37	6	3		49 44 41 
38	6	3		49 45 41 
39	6	6		62 58 54 53 52 44 
40	6	9		65 62 61 60 57 56 54 52 51 
41	6	9		65 61 60 57 56 55 54 53 51 
42	6	8		65 62 61 60 57 56 53 52 
43	6	6		65 62 61 57 54 53 
44	6	7		71 65 64 61 60 57 56 
45	6	8		75 71 65 64 63 60 59 56 
46	6	5		68 62 61 59 53 
47	6	6		71 65 64 63 59 57 
48	6	10		78 76 73 71 68 67 66 65 64 61 
49	6	6		71 67 65 64 62 59 
50	6	9		78 74 71 70 69 67 66 64 63 
51	6	8		78 75 74 71 69 68 64 63 
52	6	5		78 73 71 67 59 
53	6	6		78 71 67 66 64 63 
54	6	6		78 71 70 66 64 63 
55	6	12		85 83 81 79 78 76 74 73 72 71 70 69 
56	6	9		86 78 76 74 73 72 70 67 66 
57	6	7		78 75 73 72 69 68 66 
58	6	8		83 79 78 76 71 70 69 67 
59	6	6		77 76 74 70 69 66 
60	6	12		101 89 85 84 83 82 81 79 78 77 76 74 
61	6	7		83 81 80 79 77 74 69 
62	6	6		90 79 78 76 72 69 
63	6	8		101 90 82 81 80 76 73 72 
64	6	8		101 89 86 85 83 82 79 72 
65	6	8		101 89 86 85 83 81 80 72 
66	6	10		101 98 96 90 89 85 83 81 80 79 
67	6	9		101 100 96 90 89 87 85 80 77 
68	6	3		89 81 70 
69	6	9		101 100 99 97 89 88 86 84 82 
70	6	7		101 99 98 97 87 82 80 
71	6	7		100 96 95 94 90 87 77 
72	6	5		100 96 95 84 77 
73	6	5		96 95 89 84 77 
74	6	8		99 98 96 95 94 90 88 87 
75	6	8		99 98 97 96 95 93 88 87 
76	6	7		100 97 96 94 93 92 91 
77	6	6		99 98 97 93 92 88 
78	6	6		100 96 95 94 91 87 
79	6	5		100 97 95 91 87 
80	6	4		95 94 93 88 
81	6	4		100 99 91 87 
82	6	4		96 95 93 92 
83	6	4		94 93 92 91 
84	6	3		94 91 87 
85	6	3		97 93 91 
86	6	3		98 93 91 
87	6	1		92 
88	6	1		91 
89	6	1		94 
90	6	1		93 
91	6	1		102 
92	6	1		102 
93	6	1		102 
94	6	1		102 
95	6	1		102 
96	6	1		102 
97	6	1		102 
98	6	1		102 
99	6	1		102 
100	6	1		102 
101	6	1		102 
102	1	0		
************************************************************************
REQUESTS/DURATIONS
jobnr.	mode	dur	R1	R2	N1	N2	N3	N4	
------------------------------------------------------------------------
1	1	0	0	0	0	0	0	0	
2	1	1	5	5	15	14	18	17	
	2	4	4	4	14	11	14	15	
	3	10	4	4	13	9	12	12	
	4	11	4	4	11	8	9	12	
	5	12	4	4	11	8	6	11	
	6	14	4	4	9	5	1	8	
3	1	2	4	3	19	10	20	14	
	2	6	4	3	16	9	19	12	
	3	13	4	3	14	7	19	10	
	4	14	4	3	12	6	19	8	
	5	15	4	2	7	5	19	8	
	6	16	4	2	6	5	19	5	
4	1	6	2	2	19	10	8	15	
	2	9	2	2	16	10	8	12	
	3	12	2	2	15	10	6	11	
	4	17	2	2	13	9	6	7	
	5	18	2	2	12	8	4	6	
	6	19	2	2	9	8	3	4	
5	1	3	3	2	12	15	11	17	
	2	5	3	2	10	14	11	15	
	3	9	3	2	7	14	9	13	
	4	10	2	2	7	13	9	11	
	5	11	2	2	5	13	7	10	
	6	20	2	2	3	13	6	8	
6	1	4	2	3	3	4	14	17	
	2	5	1	3	3	3	13	17	
	3	6	1	3	3	3	13	16	
	4	7	1	3	3	3	13	15	
	5	8	1	3	3	1	13	16	
	6	13	1	3	3	1	13	15	
7	1	7	4	1	13	2	10	12	
	2	8	3	1	13	2	9	9	
	3	9	3	1	11	2	7	7	
	4	10	2	1	9	2	5	7	
	5	14	2	1	9	2	4	5	
	6	18	1	1	8	2	4	2	
8	1	1	4	4	10	10	11	12	
	2	3	3	3	10	10	9	12	
	3	9	3	3	10	9	9	12	
	4	12	3	2	10	7	9	12	
	5	16	3	2	10	6	8	12	
	6	17	3	2	10	5	7	12	
9	1	5	2	4	8	6	19	5	
	2	15	1	3	8	6	18	5	
	3	16	1	3	7	6	17	4	
	4	17	1	3	7	6	17	2	
	5	18	1	3	6	5	16	2	
	6	20	1	3	6	5	16	1	
10	1	2	4	5	12	19	16	8	
	2	3	3	4	11	17	13	8	
	3	4	3	4	10	15	9	6	
	4	8	3	3	9	13	7	5	
	5	16	3	3	9	12	6	5	
	6	19	3	3	8	8	2	4	
11	1	3	4	5	1	17	15	18	
	2	5	3	4	1	15	15	16	
	3	9	3	3	1	13	11	13	
	4	12	3	3	1	9	7	9	
	5	16	3	3	1	6	5	7	
	6	18	3	2	1	4	2	2	
12	1	2	5	3	7	18	20	9	
	2	11	4	3	6	18	18	8	
	3	12	4	3	6	17	15	6	
	4	14	4	3	5	17	13	5	
	5	17	4	3	4	17	10	3	
	6	18	4	3	4	16	9	2	
13	1	3	4	4	16	8	13	8	
	2	9	4	4	15	6	9	7	
	3	10	4	4	15	6	7	5	
	4	17	3	4	15	4	6	4	
	5	18	3	4	14	4	3	4	
	6	19	2	4	14	3	1	3	
14	1	4	4	3	18	12	8	6	
	2	8	3	2	17	10	6	6	
	3	10	3	2	16	8	6	5	
	4	13	2	2	16	5	6	5	
	5	14	1	1	16	4	4	5	
	6	15	1	1	15	2	4	4	
15	1	5	3	2	9	17	12	9	
	2	7	3	2	9	13	12	8	
	3	8	3	2	8	13	12	6	
	4	15	2	2	8	10	12	5	
	5	16	2	1	6	7	12	5	
	6	18	2	1	6	7	12	4	
16	1	1	2	5	18	8	8	19	
	2	7	1	4	13	8	7	18	
	3	8	1	4	12	8	7	17	
	4	9	1	3	8	8	7	17	
	5	15	1	2	7	8	7	16	
	6	17	1	2	3	8	7	15	
17	1	2	5	2	1	12	9	12	
	2	4	4	2	1	12	9	11	
	3	8	4	2	1	11	9	9	
	4	14	3	2	1	10	8	8	
	5	15	2	1	1	9	8	7	
	6	18	2	1	1	9	7	6	
18	1	1	5	3	5	18	16	12	
	2	4	4	3	4	14	13	12	
	3	6	4	3	3	12	10	12	
	4	7	4	3	3	11	8	12	
	5	10	3	3	2	7	6	11	
	6	15	3	3	1	4	6	11	
19	1	3	5	3	16	7	16	12	
	2	8	4	2	15	6	12	10	
	3	11	3	2	11	6	11	8	
	4	13	2	1	11	5	10	8	
	5	14	1	1	7	5	9	6	
	6	15	1	1	7	5	7	3	
20	1	3	3	4	8	12	19	5	
	2	10	3	4	8	10	18	5	
	3	12	3	4	8	9	17	5	
	4	13	3	4	8	7	16	5	
	5	16	3	4	8	5	14	5	
	6	17	3	4	8	5	13	5	
21	1	1	3	2	3	11	9	18	
	2	3	3	2	3	10	8	16	
	3	6	2	2	3	10	8	15	
	4	9	2	1	2	10	8	14	
	5	10	1	1	1	9	7	13	
	6	20	1	1	1	8	6	11	
22	1	3	5	3	18	8	19	18	
	2	4	4	2	18	8	17	18	
	3	7	4	2	16	7	14	14	
	4	14	3	1	14	7	10	12	
	5	18	3	1	12	6	8	10	
	6	19	3	1	11	6	7	9	
23	1	1	4	1	16	14	11	10	
	2	2	4	1	16	14	11	9	
	3	4	4	1	15	14	11	9	
	4	12	4	1	15	14	11	8	
	5	14	4	1	14	13	10	8	
	6	15	4	1	13	13	10	8	
24	1	4	1	2	20	16	20	9	
	2	7	1	1	17	16	15	9	
	3	12	1	1	17	15	12	6	
	4	15	1	1	16	13	12	5	
	5	16	1	1	14	13	7	4	
	6	18	1	1	12	12	7	1	
25	1	2	3	4	16	15	16	8	
	2	7	3	3	13	14	16	8	
	3	8	3	3	11	14	15	7	
	4	14	3	3	6	14	15	5	
	5	15	3	2	5	14	13	2	
	6	19	3	2	3	14	13	2	
26	1	4	4	4	15	17	11	17	
	2	6	4	4	14	16	11	16	
	3	7	4	4	14	14	11	16	
	4	15	4	4	14	13	10	13	
	5	17	4	4	14	12	10	13	
	6	19	4	4	14	10	10	10	
27	1	5	4	3	7	17	13	8	
	2	12	4	3	6	17	11	6	
	3	14	4	3	6	17	11	5	
	4	15	4	3	5	17	6	3	
	5	18	4	3	3	17	6	2	
	6	19	4	3	3	17	2	1	
28	1	9	2	4	13	7	10	9	
	2	10	2	4	13	5	8	8	
	3	11	2	4	11	4	6	6	
	4	13	2	4	11	3	6	5	
	5	15	2	4	10	3	4	3	
	6	19	2	4	9	1	3	1	
29	1	1	4	4	7	17	19	15	
	2	6	3	4	6	16	17	13	
	3	10	3	4	6	15	11	13	
	4	11	3	4	5	13	9	10	
	5	13	1	4	3	8	6	9	
	6	17	1	4	3	6	5	9	
30	1	2	2	1	11	15	11	9	
	2	8	2	1	10	14	9	7	
	3	9	2	1	9	13	8	5	
	4	10	2	1	8	10	6	5	
	5	13	1	1	6	6	5	2	
	6	16	1	1	6	4	2	1	
31	1	2	5	4	16	14	15	16	
	2	9	4	3	14	13	14	16	
	3	11	3	3	12	13	14	12	
	4	13	3	2	10	13	14	12	
	5	17	2	2	7	12	13	8	
	6	20	1	2	7	12	12	6	
32	1	7	2	4	7	15	16	14	
	2	8	2	4	5	14	15	14	
	3	9	2	4	5	14	12	14	
	4	12	2	4	4	13	8	14	
	5	14	2	4	3	12	4	13	
	6	16	2	4	3	12	4	12	
33	1	5	3	2	16	13	17	10	
	2	6	3	2	13	13	15	9	
	3	9	3	2	11	11	14	8	
	4	10	2	2	11	10	11	7	
	5	14	2	2	9	10	10	6	
	6	16	1	2	8	9	8	4	
34	1	6	5	3	8	14	20	12	
	2	7	3	3	8	13	20	8	
	3	8	3	3	8	13	20	7	
	4	9	3	2	7	11	20	4	
	5	19	1	1	6	10	20	3	
	6	20	1	1	6	9	20	1	
35	1	1	4	3	10	14	5	15	
	2	8	4	3	8	14	4	14	
	3	9	4	3	8	10	4	11	
	4	11	3	3	7	7	3	11	
	5	14	3	3	5	4	2	9	
	6	18	3	3	4	2	2	6	
36	1	1	5	2	18	11	14	15	
	2	11	4	1	18	10	12	15	
	3	12	3	1	18	7	10	13	
	4	13	3	1	18	6	7	12	
	5	14	1	1	18	3	7	11	
	6	15	1	1	18	3	5	11	
37	1	3	2	5	11	17	13	15	
	2	5	2	4	11	17	12	13	
	3	9	2	3	11	11	9	9	
	4	13	2	2	11	10	8	9	
	5	19	1	2	10	5	7	7	
	6	20	1	1	10	4	5	5	
38	1	5	5	3	11	7	13	11	
	2	6	4	2	7	7	10	9	
	3	8	4	2	6	7	8	8	
	4	10	4	2	4	7	7	7	
	5	11	4	2	4	7	5	5	
	6	12	4	2	1	7	2	5	
39	1	1	3	4	12	13	12	9	
	2	7	3	4	10	10	11	7	
	3	11	3	4	10	9	9	6	
	4	12	3	4	9	6	9	6	
	5	17	2	3	7	4	8	5	
	6	20	2	3	6	3	7	4	
40	1	1	4	3	17	12	6	7	
	2	2	3	2	16	11	5	7	
	3	13	2	2	13	11	4	7	
	4	14	2	1	11	11	3	6	
	5	16	1	1	9	11	3	6	
	6	18	1	1	6	11	2	5	
41	1	1	5	3	10	14	15	18	
	2	6	4	3	9	12	13	18	
	3	7	4	3	9	10	13	16	
	4	11	3	3	7	6	13	15	
	5	17	3	3	6	4	11	15	
	6	20	2	3	6	2	11	14	
42	1	2	2	1	18	16	15	13	
	2	6	1	1	13	14	12	10	
	3	9	1	1	12	14	12	9	
	4	13	1	1	8	13	9	5	
	5	15	1	1	8	12	7	3	
	6	20	1	1	3	12	5	1	
43	1	1	3	1	18	11	3	10	
	2	2	3	1	16	10	2	8	
	3	3	3	1	15	10	2	8	
	4	6	3	1	15	8	2	6	
	5	8	2	1	13	6	2	6	
	6	13	2	1	11	4	2	4	
44	1	3	4	3	15	14	12	13	
	2	4	3	3	14	11	10	11	
	3	5	3	3	14	10	9	10	
	4	7	3	3	14	6	7	9	
	5	15	2	3	14	3	6	8	
	6	19	2	3	14	2	5	5	
45	1	4	5	3	4	11	13	2	
	2	13	4	3	3	11	13	2	
	3	14	4	2	3	10	12	2	
	4	15	4	2	2	9	12	2	
	5	17	4	1	2	8	12	1	
	6	19	4	1	1	7	11	1	
46	1	5	5	4	3	13	8	12	
	2	6	4	4	2	11	8	10	
	3	11	3	4	2	10	8	9	
	4	12	3	4	1	9	8	6	
	5	14	1	3	1	8	8	5	
	6	20	1	3	1	8	8	4	
47	1	1	3	2	7	10	13	15	
	2	7	2	2	5	10	10	13	
	3	11	2	2	4	10	10	11	
	4	12	1	2	4	10	8	11	
	5	13	1	2	3	10	5	9	
	6	20	1	2	1	10	4	7	
48	1	4	4	3	9	12	13	12	
	2	6	4	3	7	11	11	11	
	3	13	3	3	6	11	10	10	
	4	16	3	3	5	10	8	10	
	5	19	2	3	4	10	4	9	
	6	20	2	3	4	9	1	8	
49	1	1	2	3	12	12	10	17	
	2	2	1	3	10	12	10	15	
	3	12	1	3	9	10	9	15	
	4	15	1	3	6	10	9	11	
	5	17	1	3	3	9	8	11	
	6	19	1	3	2	8	8	8	
50	1	3	2	4	14	18	13	11	
	2	4	2	4	14	18	12	10	
	3	13	2	4	14	18	11	9	
	4	16	2	4	14	17	10	8	
	5	18	1	4	13	17	9	6	
	6	20	1	4	13	17	8	5	
51	1	7	3	4	7	19	6	16	
	2	8	3	3	6	18	5	15	
	3	9	2	3	6	18	5	13	
	4	13	2	2	6	17	4	12	
	5	17	1	1	6	17	4	11	
	6	18	1	1	6	17	3	11	
52	1	4	5	4	15	6	11	7	
	2	6	4	3	15	6	10	6	
	3	11	4	3	14	5	10	6	
	4	12	4	2	14	4	9	6	
	5	15	4	2	13	3	7	6	
	6	17	4	2	12	2	5	6	
53	1	2	1	4	7	1	11	12	
	2	6	1	4	7	1	10	12	
	3	7	1	4	6	1	8	12	
	4	10	1	4	5	1	8	12	
	5	15	1	4	4	1	5	12	
	6	17	1	4	4	1	4	12	
54	1	13	2	5	16	17	14	17	
	2	16	2	4	16	17	10	15	
	3	17	2	4	12	17	9	14	
	4	18	1	4	11	17	8	14	
	5	19	1	4	9	17	6	10	
	6	20	1	4	6	17	3	9	
55	1	3	4	5	10	16	16	13	
	2	4	4	4	7	11	12	12	
	3	8	3	4	6	11	10	12	
	4	12	3	3	4	9	8	11	
	5	13	3	3	4	5	6	11	
	6	18	2	2	2	3	5	10	
56	1	1	5	4	6	17	10	12	
	2	3	4	4	6	15	9	12	
	3	4	4	4	6	15	8	12	
	4	13	4	4	5	12	8	11	
	5	17	3	4	5	11	8	11	
	6	20	3	4	5	9	7	11	
57	1	6	2	1	11	11	6	17	
	2	7	1	1	9	11	5	15	
	3	11	1	1	6	11	5	13	
	4	12	1	1	5	10	4	8	
	5	16	1	1	4	10	3	6	
	6	20	1	1	2	10	3	4	
58	1	3	3	4	18	11	13	14	
	2	4	3	3	16	10	13	14	
	3	10	3	3	16	10	13	12	
	4	11	3	2	14	8	12	12	
	5	16	3	2	14	8	12	10	
	6	17	3	1	12	7	11	10	
59	1	3	4	4	14	17	17	11	
	2	4	3	4	12	16	14	10	
	3	8	3	4	11	15	13	8	
	4	13	2	4	8	14	11	8	
	5	16	1	3	7	12	8	6	
	6	18	1	3	5	12	5	6	
60	1	1	2	4	14	12	4	19	
	2	2	1	4	12	10	4	17	
	3	7	1	4	11	9	4	17	
	4	8	1	3	9	5	4	14	
	5	9	1	2	9	4	4	14	
	6	10	1	2	6	2	4	13	
61	1	7	4	3	20	16	20	14	
	2	8	3	3	18	13	18	13	
	3	9	3	3	14	11	15	12	
	4	10	2	3	13	9	13	10	
	5	17	2	3	11	8	10	9	
	6	19	2	3	10	6	10	9	
62	1	2	5	4	11	20	13	15	
	2	3	4	4	8	16	12	15	
	3	5	4	3	7	15	11	15	
	4	12	3	3	5	14	11	15	
	5	16	2	3	3	12	10	15	
	6	18	2	2	2	9	10	15	
63	1	1	2	3	17	7	6	2	
	2	5	2	3	16	7	5	2	
	3	6	2	3	16	5	5	2	
	4	10	2	3	14	5	4	2	
	5	15	1	3	12	3	4	2	
	6	16	1	3	11	3	3	2	
64	1	4	2	5	12	14	8	5	
	2	5	2	4	10	14	7	5	
	3	10	2	4	10	14	7	4	
	4	13	2	3	9	14	7	4	
	5	14	2	3	7	14	6	4	
	6	20	2	3	6	14	6	4	
65	1	4	4	3	10	13	11	16	
	2	7	3	3	9	12	9	14	
	3	8	3	3	8	10	7	14	
	4	12	3	2	6	8	6	13	
	5	13	3	2	5	6	4	10	
	6	17	3	2	4	4	2	9	
66	1	1	4	5	9	17	5	16	
	2	9	4	4	9	14	5	14	
	3	10	4	4	9	12	5	12	
	4	13	4	4	8	8	4	11	
	5	17	4	3	8	7	4	10	
	6	19	4	3	7	3	3	8	
67	1	3	3	5	17	19	16	13	
	2	6	3	5	14	18	13	13	
	3	7	3	5	14	16	9	10	
	4	15	3	5	10	15	8	8	
	5	17	3	5	6	12	6	6	
	6	19	3	5	4	11	2	3	
68	1	1	2	3	15	10	14	7	
	2	4	2	3	15	10	12	6	
	3	5	2	3	14	9	12	4	
	4	12	2	3	14	7	10	3	
	5	15	2	3	12	7	6	3	
	6	16	2	3	12	6	5	1	
69	1	1	1	3	19	14	13	15	
	2	2	1	2	19	14	12	12	
	3	4	1	2	19	14	12	9	
	4	5	1	2	18	14	12	6	
	5	19	1	1	18	13	11	6	
	6	20	1	1	17	13	11	4	
70	1	3	4	4	12	6	16	15	
	2	4	4	3	12	5	14	15	
	3	6	4	2	10	5	13	15	
	4	9	4	2	7	5	12	15	
	5	10	4	1	7	5	11	15	
	6	12	4	1	5	5	9	15	
71	1	4	4	4	16	11	16	19	
	2	6	4	4	12	10	12	19	
	3	9	4	4	10	8	11	18	
	4	11	3	4	9	8	10	17	
	5	12	3	4	5	6	8	16	
	6	16	3	4	5	5	7	14	
72	1	2	3	3	14	12	5	8	
	2	5	3	3	12	12	4	5	
	3	13	3	3	11	10	4	5	
	4	15	3	2	8	7	3	4	
	5	16	3	2	5	6	2	2	
	6	17	3	2	3	4	2	2	
73	1	2	4	4	10	17	6	10	
	2	3	4	3	9	17	6	10	
	3	7	4	3	9	17	5	9	
	4	9	4	2	8	17	4	7	
	5	13	4	2	8	16	4	7	
	6	14	4	2	8	16	3	6	
74	1	3	2	3	17	20	13	13	
	2	5	2	3	16	15	12	13	
	3	14	2	3	16	12	11	13	
	4	17	2	3	14	8	8	13	
	5	18	2	2	13	7	5	13	
	6	19	2	2	12	4	4	13	
75	1	3	5	2	11	20	18	12	
	2	4	4	2	11	19	14	10	
	3	5	4	2	11	19	14	7	
	4	13	3	2	11	19	13	7	
	5	19	3	2	11	19	10	6	
	6	20	3	2	11	19	9	4	
76	1	5	2	3	6	16	9	18	
	2	6	2	2	5	15	8	16	
	3	8	2	2	3	13	8	15	
	4	9	2	2	2	11	8	12	
	5	12	2	2	1	7	8	10	
	6	17	2	2	1	5	8	8	
77	1	3	3	4	7	15	16	1	
	2	4	3	3	6	12	16	1	
	3	11	3	3	5	9	14	1	
	4	14	2	3	5	7	10	1	
	5	15	2	2	5	6	9	1	
	6	20	2	2	4	5	8	1	
78	1	1	5	5	9	8	16	15	
	2	3	4	4	8	8	16	14	
	3	7	4	4	8	8	14	13	
	4	8	3	4	8	7	13	13	
	5	19	3	3	8	7	11	12	
	6	20	3	3	8	6	8	12	
79	1	1	3	4	13	18	12	15	
	2	9	3	3	12	16	12	15	
	3	10	3	3	12	13	11	14	
	4	11	3	2	12	13	9	13	
	5	19	3	2	11	10	8	12	
	6	20	3	2	11	9	8	11	
80	1	3	1	4	14	12	8	5	
	2	6	1	3	12	11	8	3	
	3	7	1	3	11	10	7	3	
	4	11	1	2	7	9	6	3	
	5	16	1	2	7	8	4	2	
	6	20	1	2	2	8	4	1	
81	1	5	4	4	11	5	5	20	
	2	8	4	4	9	5	4	20	
	3	11	4	3	9	5	4	20	
	4	12	4	3	8	5	4	20	
	5	15	4	1	6	5	4	20	
	6	18	4	1	6	5	4	19	
82	1	1	4	4	11	10	17	19	
	2	4	3	4	11	9	17	16	
	3	8	3	3	9	8	17	14	
	4	13	3	2	9	7	16	10	
	5	14	3	1	7	4	16	8	
	6	18	3	1	7	3	16	5	
83	1	5	3	5	18	3	15	3	
	2	8	3	4	14	3	12	3	
	3	11	3	4	12	2	11	3	
	4	12	2	4	10	2	7	2	
	5	17	1	4	8	2	5	2	
	6	18	1	4	3	1	3	2	
84	1	2	1	4	12	13	14	17	
	2	4	1	4	11	12	12	13	
	3	7	1	4	9	11	12	13	
	4	12	1	4	7	10	12	10	
	5	14	1	4	6	9	11	9	
	6	17	1	4	5	9	10	6	
85	1	6	1	5	11	13	12	2	
	2	7	1	4	9	12	11	2	
	3	12	1	4	8	11	10	2	
	4	15	1	4	6	11	10	2	
	5	16	1	4	5	10	9	2	
	6	17	1	4	5	10	8	2	
86	1	1	4	4	18	13	4	11	
	2	6	3	3	17	12	4	9	
	3	10	2	3	16	10	4	8	
	4	11	2	2	16	10	4	5	
	5	16	1	1	15	8	4	3	
	6	20	1	1	14	7	4	1	
87	1	4	3	1	9	5	9	10	
	2	9	2	1	7	4	7	8	
	3	11	2	1	5	3	7	8	
	4	12	2	1	5	2	6	7	
	5	19	2	1	3	1	5	5	
	6	20	2	1	1	1	5	5	
88	1	1	4	4	9	13	13	3	
	2	4	4	4	9	13	13	2	
	3	6	4	4	9	12	11	2	
	4	13	4	4	9	12	9	2	
	5	16	4	4	9	12	5	1	
	6	20	4	4	9	11	4	1	
89	1	1	4	5	14	13	20	2	
	2	3	3	4	13	12	17	2	
	3	5	3	4	10	12	17	2	
	4	6	2	4	7	11	16	2	
	5	16	1	3	5	10	15	2	
	6	18	1	3	3	10	14	2	
90	1	2	4	5	12	19	20	9	
	2	4	3	4	11	17	19	9	
	3	11	3	4	10	13	18	6	
	4	12	3	3	9	12	17	6	
	5	13	2	3	7	10	15	4	
	6	17	2	3	6	8	15	2	
91	1	1	4	5	17	17	6	16	
	2	2	4	4	15	16	4	15	
	3	3	4	4	10	15	4	15	
	4	10	4	3	9	14	4	14	
	5	16	4	2	5	12	3	14	
	6	17	4	2	2	11	2	13	
92	1	4	4	4	18	8	11	19	
	2	6	3	3	17	7	8	19	
	3	12	3	3	14	5	7	17	
	4	13	2	3	12	5	5	16	
	5	15	2	1	11	3	4	16	
	6	18	2	1	8	3	2	15	
93	1	5	2	3	13	9	10	6	
	2	11	2	2	10	8	8	6	
	3	12	2	2	8	6	7	6	
	4	16	2	2	8	6	5	6	
	5	17	1	2	5	5	3	6	
	6	20	1	2	3	4	1	6	
94	1	3	5	3	19	6	15	9	
	2	7	4	3	18	4	12	8	
	3	8	4	3	18	3	12	7	
	4	9	3	3	17	2	8	7	
	5	13	2	3	16	2	7	7	
	6	17	2	3	16	1	6	6	
95	1	4	2	2	16	7	11	13	
	2	6	1	1	16	6	10	11	
	3	8	1	1	16	6	10	9	
	4	9	1	1	16	5	8	8	
	5	13	1	1	16	5	6	8	
	6	14	1	1	16	4	4	7	
96	1	1	4	2	17	14	10	4	
	2	6	3	2	14	14	10	4	
	3	12	3	2	12	12	9	4	
	4	13	3	2	12	10	9	3	
	5	14	3	2	9	9	8	3	
	6	20	3	2	7	8	7	3	
97	1	3	4	4	9	16	4	20	
	2	9	3	4	9	16	3	19	
	3	10	3	4	9	15	3	19	
	4	11	3	3	8	13	2	19	
	5	13	2	2	8	13	2	19	
	6	15	2	2	8	11	1	19	
98	1	1	4	3	19	19	17	17	
	2	4	4	3	18	18	15	13	
	3	11	4	3	17	16	13	11	
	4	12	4	2	17	16	12	8	
	5	13	3	1	17	14	11	6	
	6	14	3	1	16	14	8	2	
99	1	4	5	4	16	5	13	16	
	2	5	4	3	14	5	11	14	
	3	6	4	3	11	4	10	14	
	4	7	4	3	9	3	10	14	
	5	14	4	3	6	3	8	12	
	6	18	4	3	2	2	8	12	
100	1	3	3	2	17	16	19	19	
	2	4	3	2	15	16	19	16	
	3	7	3	2	13	16	19	12	
	4	8	3	1	12	15	19	8	
	5	10	3	1	10	15	18	7	
	6	15	3	1	7	15	18	4	
101	1	1	4	4	17	10	13	9	
	2	7	4	4	13	8	12	9	
	3	8	4	4	13	6	11	9	
	4	17	4	4	9	5	9	9	
	5	18	4	4	8	2	8	8	
	6	19	4	4	6	1	7	8	
102	1	0	0	0	0	0	0	0	
************************************************************************

 RESOURCE AVAILABILITIES 
	R 1	R 2	N 1	N 2	N 3	N 4
	30	38	963	997	954	935

************************************************************************
